bender/mip_bender.sol
# Solution for model mip_bender
# Objective value = 2.0666666666666668e+01
x1 0
x2 0
x3 2
n 2.6666666666666665e+00
